701632
698706
698472
698472
697542
695080
691787
690986
690593
685582
685582
685582
683674
683302
677483
670858
670858
670858
670858
670858
670858
670858
666435
666435
666435
666435
666435
664521
663410
663410
662645
662645
662645
658372
658372
658372
657590
657590
657590
657590
656129
656129
656129
654274
654207
654207
652061
651814
651814
650209
650209
650209
648570
645847
645847
645847
645847
643857
643276
642447
641828
641685
640489
640489
639313
634683
634683
634683
634683
634683
634683
633742
632925
632925
630321
629940
629778
629280
628872
622910
622910
622910
622910
622910
622910
620693
619611
616436
614219
613559
613559
613559
613559
613559
606660
606660
605999
605999
605999
605999
